20
10
0 1 11 0.6
0 2 10 0.8
0 3 12 0.1
0 4 9 0.6
0 5 2 0.7
0 6 4 0.9
0 7 10 0.9
0 8 4 0.8
0 9 6 0.7
0 10 8 0.8
0 11 10 0.9
0 12 16 0.5
0 13 11 0.6
0 14 10 0.6
0 15 10 0.7
0 16 8 0.8
0 17 4 0.7
0 18 7 0.6
0 19 22 0.2
1 2 56 0.7
1 3 54 0.8
1 4 35 2.3
1 5 61 0.2
1 6 44 3.1
1 7 33 2.8
1 8 33 0.7
1 9 6 0.6
1 10 60 0.2
1 11 58 0.8
1 12 59 0.7
1 13 68 0.2
1 14 33 0.9
1 15 56 0.9
1 16 52 0.7
1 17 69 0.2
1 18 42 0.6
1 19 44 0.6
2 3 17 0.6
2 4 16 0.8
2 5 15 1.9
2 6 24 0.2
2 7 34 0.3
2 8 11 1.0
2 9 4 2.2
2 10 5 1.4
2 11 12 0.8
2 12 14 0.8
2 13 13 0.8
2 14 14 0.8
2 15 15 0.7
2 16 15 0.9
2 17 15 1.0
2 18 18 0.5
2 19 5 0.7
3 4 11 0.6
3 5 10 0.6
3 6 9 0.8
3 7 9 1.1
3 8 10 1.2
3 9 11 1.4
3 10 6 3.2
3 11 8 0.8
3 12 26 0.4
3 13 5 1.5
3 14 1 0.8
3 15 8 0.6
3 16 10 0.8
3 17 11 1.0
3 18 7 1.1
3 19 20 0.5
4 5 48 1.5
4 6 34 1.6
4 7 25 1.1
4 8 50 0.2
4 9 44 6.1
4 10 35 0.6
4 11 25 0.7
4 12 43 0.8
4 13 26 0.6
4 14 54 0.2
4 15 56 0.2
4 16 55 0.2
4 17 26 3.3
4 18 44 0.8
4 19 31 2.3
5 6 44 0.7
5 7 42 0.8
5 8 36 0.7
5 9 6 0.7
5 10 65 0.2
5 11 32 0.6
5 12 25 0.8
5 13 62 0.2
5 14 24 1.0
5 15 27 2.2
5 16 28 1.8
5 17 67 0.2
5 18 42 3.2
5 19 44 1.1
6 7 14 0.5
6 8 9 3.3
6 9 7 1.4
6 10 6 0.7
6 11 4 0.7
6 12 5 0.8
6 13 9 0.8
6 14 9 0.9
6 15 4 0.9
6 16 7 0.8
6 17 8 1.0
6 18 10 0.1
6 19 2 0.8
7 8 13 3.3
7 9 12 1.1
7 10 10 1.5
7 11 12 1.5
7 12 13 1.4
7 13 9 1.2
7 14 10 1.4
7 15 12 0.8
7 16 9 0.7
7 17 7 0.7
7 18 30 0.4
7 19 4 0.6
8 9 49 0.6
8 10 42 2.2
8 11 23 4.1
8 12 48 2.0
8 13 32 0.6
8 14 59 0.2
8 15 58 0.2
8 16 51 0.2
8 17 22 0.7
8 18 21 1.0
8 19 33 1.1
9 10 44 1.1
9 11 80 2.0
9 12 70 1.2
9 13 76 0.6
9 14 33 0.7
9 15 46 0.8
9 16 64 0.9
9 17 55 2.2
9 18 33 3.2
9 19 22 0.8
10 11 33 0.8
10 12 35 0.9
10 13 66 0.2
10 14 52 1.1
10 15 55 1.2
10 16 33 1.3
10 17 64 0.2
10 18 25 1.5
10 19 4 2.2
11 12 25 2.1
11 13 26 0.7
11 14 74 6.1
11 15 44 1.2
11 16 67 0.8
11 17 50 1.0
11 18 20 1.1
11 19 42 1.1
12 13 15 0.7
12 14 15 0.7
12 15 14 0.7
12 16 12 0.7
12 17 11 0.8
12 18 8 0.9
12 19 28 0.3
13 14 5 1.9
13 15 43 0.7
13 16 36 0.6
13 17 63 0.2
13 18 26 0.6
13 19 43 0.6
14 15 53 0.2
14 16 57 0.2
14 17 44 0.7
14 18 22 0.9
14 19 35 0.8
15 16 52 0.2
15 17 8 1.1
15 18 44 1.2
15 19 38 1.3
16 17 44 0.7
16 18 36 0.9
16 19 25 0.8
17 18 6 1.1
17 19 44 1.2
18 19 3 1.9
